2277 3344
2277 3343
2305 3343
2305 3336
2368 3336
2368 3327
2416 3327
2416 3312
2484 3312
2484 3290
2545 3290
2545 3285
2556 3285
2556 3264
2596 3264
2596 3259
2603 3259
2603 3222
2654 3222
2654 3216
2662 3216
2662 3201
2679 3201
2679 3191
2690 3191
2690 3156
2723 3156
2723 3143
2735 3143
2735 3128
2748 3128
2748 3092
2777 3092
2777 3039
2818 3039
2818 3021
2831 3021
2831 3001
2845 3001
2845 2970
2864 2970
2864 2916
2892 2916
2892 2898
2900 2898
2900 2815
2934 2815
2934 2780
2940 2780
2940 2728
2945 2728
2945 2651
2951 2651
2945 2728
2940 2780
2934 2815
2900 2898
2892 2916
2864 2970
2845 3001
2831 3021
2818 3039
2777 3092
2748 3128
2735 3143
2723 3156
2690 3191
2679 3201
2662 3216
2654 3222
2603 3259
2596 3264
2556 3285
2545 3290
2484 3312
2416 3327
2368 3336
2305 3343
2277 3344
